\ Model Master Problem
\ LP format - for model browsing. Use MPS format to capture full model detail.
Minimize
  1000 slack[0] + 1000 slack[1] + 1000 slack[2] + 1000 slack[3]
   + 1000 slack[4] + 1000 slack[5] + 1000 slack[6] + 1000 slack[7]
   + 1000 slack[8] + 1000 slack[9] + 1000 slack[10] + 1000 slack[11]
   + 1000 slack[12] + 1000 slack[13] + 1000 slack[14] + 1000 slack[15]
   + 1000 slack[16] + 1000 slack[17] + 1000 slack[18] + 1000 slack[19]
   + 1000 slack[20] + 1000 slack[21] + 1000 slack[22] + 1000 slack[23]
   + 1000 slack[24] + 1000 slack[25] + 1000 slack[26] + 1000 slack[27]
   + 1000 slack[28] + 1000 slack[29] + 1000 slack[30] + 1000 slack[31]
   + 1000 slack[32] + 1000 slack[33] + 1000 slack[34] + 1000 slack[35]
   + 1000 slack[36] + 1000 slack[37] + 1000 slack[38] + 1000 slack[39]
   + 1000 slack[40] + 1000 slack[41] + 1000 slack[42] + 1000 slack[43]
   + 1000 slack[44] + 1000 slack[45] + 1000 slack[46] + 1000 slack[47]
   + 1000 slack[48] + 1000 slack[49]
Subject To
 R0: slack[0] >= 102
 R1: slack[1] >= 36
 R2: slack[2] >= 176
 R3: slack[3] >= 32
 R4: slack[4] >= 159
 R5: slack[5] >= 118
 R6: slack[6] >= 156
 R7: slack[7] >= 92
 R8: slack[8] >= 165
 R9: slack[9] >= 30
 R10: slack[10] >= 5
 R11: slack[11] >= 44
 R12: slack[12] >= 175
 R13: slack[13] >= 190
 R14: slack[14] >= 144
 R15: slack[15] >= 21
 R16: slack[16] >= 98
 R17: slack[17] >= 123
 R18: slack[18] >= 153
 R19: slack[19] >= 39
 R20: slack[20] >= 32
 R21: slack[21] >= 30
 R22: slack[22] >= 102
 R23: slack[23] >= 83
 R24: slack[24] >= 83
 R25: slack[25] >= 66
 R26: slack[26] >= 9
 R27: slack[27] >= 131
 R28: slack[28] >= 196
 R29: slack[29] >= 47
 R30: slack[30] >= 90
 R31: slack[31] >= 39
 R32: slack[32] >= 167
 R33: slack[33] >= 151
 R34: slack[34] >= 38
 R35: slack[35] >= 125
 R36: slack[36] >= 8
 R37: slack[37] >= 144
 R38: slack[38] >= 176
 R39: slack[39] >= 141
 R40: slack[40] >= 51
 R41: slack[41] >= 11
 R42: slack[42] >= 154
 R43: slack[43] >= 168
 R44: slack[44] >= 161
 R45: slack[45] >= 16
 R46: slack[46] >= 130
 R47: slack[47] >= 58
 R48: slack[48] >= 153
 R49: slack[49] >= 41
Bounds
End
